param set_len = 80;
param target := 23272881;
set values := 90193, 718402, 181515, 503556, 694517, 330005, 690223, 611952, 429336, 291099, 310516, 842952, 1022393, 325446, 724916, 466689, 914707, 517984, 92172, 254170, 773289, 326928, 526131, 663331, 722980, 387780, 938892, 449711, 946963, 989513, 1025133, 791466, 568147, 453439, 97480, 26579, 997199, 358595, 414500, 640813, 275668, 666356, 544303, 994732, 677828, 198742, 1029400, 726401, 570347, 514627, 272231, 799410, 795239, 1035499, 342216, 622187, 294620, 1028548, 719231, 867935, 1028863, 883486, 666288, 355704, 1037542, 337566, 766654, 828049, 152087, 343937, 733907, 549207, 425747, 62077, 41808, 616399, 357737, 188251, 913016, 486524, ;
